70
1 0 1
3 0 1
3 1 1
4 1 1
5 0 1
5 3 1
6 0 1
6 1 1
6 2 1
6 3 1
6 4 1
6 5 1
7 2 1
8 3 1
9 0 1
9 2 1
9 4 1
9 5 1
9 6 1
9 8 1
10 1 1
10 2 1
10 4 1
10 6 1
10 7 1
11 1 1
11 4 1
11 5 1
11 6 1
11 9 1
11 10 1
12 1 1
12 3 1
12 4 1
12 6 1
12 11 1
13 0 1
13 1 1
13 3 1
13 5 1
13 9 1
13 10 1
14 1 1
14 2 1
14 3 1
14 5 1
14 11 1
14 13 1
15 0 1
15 1 1
15 3 1
15 5 1
15 6 1
15 10 1
15 11 1
15 13 1
15 14 1
16 2 1
16 3 1
16 5 1
16 6 1
16 8 1
16 10 1
16 11 1
16 15 1
17 0 1
17 1 1
17 4 1
17 5 1
17 8 1
17 9 1
17 13 1
17 14 1
17 15 1
18 2 1
18 4 1
18 8 1
18 12 1
18 15 1
18 16 1
18 17 1
19 1 1
19 3 1
19 8 1
19 10 1
19 11 1
19 12 1
19 13 1
19 16 1
20 1 1
20 3 1
20 5 1
20 6 1
20 7 1
20 9 1
20 11 1
20 12 1
20 13 1
20 17 1
21 4 1
21 5 1
21 7 1
21 8 1
21 9 1
21 10 1
21 12 1
21 13 1
21 15 1
21 19 1
21 20 1
22 0 1
22 5 1
22 9 1
22 13 1
22 15 1
22 16 1
22 17 1
22 18 1
22 20 1
23 1 1
23 3 1
23 9 1
23 10 1
23 12 1
23 14 1
23 15 1
23 17 1
23 18 1
23 22 1
24 0 1
24 2 1
24 3 1
24 4 1
24 5 1
24 8 1
24 9 1
24 10 1
24 11 1
24 21 1
24 22 1
24 23 1
25 0 1
25 2 1
25 4 1
25 9 1
25 10 1
25 11 1
25 12 1
25 13 1
25 14 1
25 17 1
25 19 1
25 22 1
25 24 1
26 0 1
26 1 1
26 2 1
26 4 1
26 5 1
26 8 1
26 10 1
26 11 1
26 14 1
26 20 1
26 21 1
26 23 1
26 24 1
26 25 1
27 2 1
27 3 1
27 5 1
27 6 1
27 7 1
27 8 1
27 9 1
27 10 1
27 15 1
27 16 1
27 17 1
27 25 1
28 2 1
28 4 1
28 5 1
28 7 1
28 9 1
28 11 1
28 12 1
28 15 1
28 16 1
28 19 1
28 23 1
28 24 1
28 25 1
29 1 1
29 2 1
29 5 1
29 6 1
29 10 1
29 12 1
29 14 1
29 15 1
29 17 1
29 19 1
29 21 1
29 23 1
29 24 1
29 28 1
30 3 1
30 4 1
30 7 1
30 9 1
30 11 1
30 13 1
30 14 1
30 15 1
30 21 1
30 22 1
30 24 1
30 26 1
30 28 1
30 29 1
31 1 1
31 6 1
31 9 1
31 10 1
31 15 1
31 16 1
31 17 1
31 18 1
31 21 1
31 22 1
31 24 1
31 30 1
32 1 1
32 2 1
32 3 1
32 4 1
32 7 1
32 10 1
32 11 1
32 14 1
32 17 1
32 18 1
32 20 1
32 21 1
32 22 1
32 23 1
32 24 1
32 28 1
32 29 1
33 0 1
33 1 1
33 3 1
33 4 1
33 9 1
33 10 1
33 11 1
33 12 1
33 14 1
33 16 1
33 21 1
33 22 1
33 25 1
33 27 1
33 29 1
33 30 1
33 31 1
33 32 1
34 2 1
34 3 1
34 4 1
34 7 1
34 8 1
34 9 1
34 10 1
34 11 1
34 12 1
34 13 1
34 14 1
34 17 1
34 20 1
34 21 1
34 23 1
34 24 1
34 26 1
34 27 1
34 30 1
34 33 1
35 2 1
35 3 1
35 4 1
35 5 1
35 6 1
35 8 1
35 11 1
35 14 1
35 18 1
35 22 1
35 23 1
35 25 1
35 26 1
35 28 1
35 29 1
35 32 1
35 33 1
35 34 1
36 2 1
36 3 1
36 4 1
36 7 1
36 8 1
36 9 1
36 10 1
36 13 1
36 14 1
36 15 1
36 17 1
36 19 1
36 29 1
36 30 1
36 32 1
36 34 1
37 4 1
37 5 1
37 6 1
37 7 1
37 8 1
37 9 1
37 10 1
37 17 1
37 21 1
37 22 1
37 24 1
37 25 1
37 27 1
37 28 1
37 32 1
37 35 1
38 0 1
38 1 1
38 2 1
38 5 1
38 6 1
38 8 1
38 12 1
38 14 1
38 16 1
38 17 1
38 19 1
38 20 1
38 21 1
38 22 1
38 28 1
38 31 1
38 33 1
38 34 1
38 37 1
39 0 1
39 1 1
39 4 1
39 5 1
39 6 1
39 7 1
39 9 1
39 10 1
39 11 1
39 12 1
39 15 1
39 17 1
39 18 1
39 20 1
39 22 1
39 23 1
39 26 1
39 28 1
39 29 1
39 30 1
39 34 1
40 0 1
40 1 1
40 4 1
40 6 1
40 7 1
40 8 1
40 9 1
40 10 1
40 12 1
40 13 1
40 14 1
40 16 1
40 18 1
40 19 1
40 22 1
40 25 1
40 27 1
40 30 1
40 32 1
40 35 1
40 37 1
40 38 1
41 0 1
41 4 1
41 5 1
41 6 1
41 7 1
41 8 1
41 10 1
41 12 1
41 14 1
41 16 1
41 17 1
41 18 1
41 20 1
41 22 1
41 26 1
41 27 1
41 28 1
41 32 1
41 33 1
41 34 1
41 38 1
41 40 1
42 0 1
42 3 1
42 5 1
42 7 1
42 8 1
42 9 1
42 10 1
42 11 1
42 12 1
42 13 1
42 14 1
42 16 1
42 17 1
42 18 1
42 20 1
42 22 1
42 23 1
42 25 1
42 26 1
42 27 1
42 29 1
42 30 1
42 32 1
42 35 1
42 38 1
42 39 1
43 0 1
43 8 1
43 9 1
43 12 1
43 15 1
43 16 1
43 18 1
43 22 1
43 26 1
43 33 1
43 34 1
43 36 1
43 37 1
43 39 1
43 41 1
44 1 1
44 2 1
44 4 1
44 5 1
44 6 1
44 7 1
44 10 1
44 11 1
44 15 1
44 16 1
44 17 1
44 19 1
44 21 1
44 25 1
44 31 1
44 33 1
44 35 1
44 36 1
44 38 1
44 39 1
44 40 1
44 42 1
44 43 1
45 0 1
45 1 1
45 3 1
45 8 1
45 9 1
45 11 1
45 14 1
45 15 1
45 18 1
45 22 1
45 24 1
45 26 1
45 27 1
45 33 1
45 35 1
45 36 1
45 37 1
45 38 1
45 39 1
45 41 1
45 43 1
45 44 1
46 0 1
46 3 1
46 4 1
46 6 1
46 8 1
46 9 1
46 10 1
46 11 1
46 13 1
46 14 1
46 15 1
46 17 1
46 18 1
46 20 1
46 22 1
46 23 1
46 24 1
46 26 1
46 28 1
46 30 1
46 31 1
46 32 1
46 38 1
46 39 1
46 41 1
46 43 1
47 0 1
47 11 1
47 14 1
47 16 1
47 17 1
47 18 1
47 19 1
47 21 1
47 23 1
47 25 1
47 28 1
47 29 1
47 31 1
47 32 1
47 34 1
47 35 1
47 36 1
47 38 1
47 39 1
47 41 1
47 42 1
47 44 1
47 46 1
48 2 1
48 4 1
48 5 1
48 6 1
48 8 1
48 13 1
48 14 1
48 17 1
48 18 1
48 21 1
48 23 1
48 27 1
48 28 1
48 29 1
48 31 1
48 32 1
48 35 1
48 38 1
48 39 1
48 44 1
48 47 1
49 2 1
49 6 1
49 9 1
49 13 1
49 16 1
49 17 1
49 18 1
49 19 1
49 22 1
49 24 1
49 25 1
49 28 1
49 30 1
49 36 1
49 37 1
49 38 1
49 40 1
49 43 1
49 44 1
49 48 1
50 2 1
50 4 1
50 7 1
50 8 1
50 9 1
50 11 1
50 12 1
50 14 1
50 16 1
50 21 1
50 22 1
50 23 1
50 26 1
50 30 1
50 34 1
50 36 1
50 37 1
50 38 1
50 40 1
50 45 1
50 47 1
50 48 1
50 49 1
51 1 1
51 2 1
51 3 1
51 5 1
51 6 1
51 7 1
51 9 1
51 11 1
51 12 1
51 13 1
51 14 1
51 15 1
51 17 1
51 19 1
51 20 1
51 24 1
51 25 1
51 27 1
51 30 1
51 34 1
51 35 1
51 38 1
51 40 1
51 42 1
51 43 1
51 46 1
51 48 1
51 50 1
52 0 1
52 1 1
52 4 1
52 5 1
52 6 1
52 9 1
52 10 1
52 11 1
52 13 1
52 17 1
52 18 1
52 19 1
52 20 1
52 21 1
52 23 1
52 26 1
52 27 1
52 28 1
52 29 1
52 30 1
52 37 1
52 38 1
52 40 1
52 41 1
52 42 1
52 43 1
52 44 1
52 46 1
52 47 1
52 51 1
53 1 1
53 3 1
53 4 1
53 7 1
53 8 1
53 9 1
53 10 1
53 11 1
53 14 1
53 18 1
53 20 1
53 21 1
53 22 1
53 23 1
53 27 1
53 28 1
53 29 1
53 33 1
53 34 1
53 35 1
53 39 1
53 44 1
53 46 1
53 47 1
53 48 1
53 49 1
53 51 1
54 1 1
54 7 1
54 11 1
54 12 1
54 14 1
54 15 1
54 18 1
54 19 1
54 20 1
54 23 1
54 24 1
54 25 1
54 27 1
54 30 1
54 34 1
54 35 1
54 36 1
54 38 1
54 39 1
54 40 1
54 41 1
54 42 1
54 43 1
54 45 1
54 46 1
54 47 1
54 49 1
54 51 1
54 53 1
55 0 1
55 2 1
55 4 1
55 6 1
55 8 1
55 9 1
55 10 1
55 11 1
55 12 1
55 19 1
55 20 1
55 24 1
55 28 1
55 30 1
55 31 1
55 33 1
55 35 1
55 38 1
55 42 1
55 44 1
55 45 1
55 47 1
55 48 1
55 49 1
55 52 1
55 53 1
55 54 1
56 1 1
56 2 1
56 4 1
56 5 1
56 6 1
56 7 1
56 8 1
56 10 1
56 11 1
56 12 1
56 13 1
56 15 1
56 17 1
56 19 1
56 22 1
56 23 1
56 25 1
56 26 1
56 28 1
56 29 1
56 35 1
56 36 1
56 39 1
56 40 1
56 43 1
56 45 1
56 46 1
56 47 1
56 49 1
56 52 1
56 54 1
57 0 1
57 2 1
57 4 1
57 5 1
57 6 1
57 8 1
57 9 1
57 10 1
57 11 1
57 12 1
57 13 1
57 15 1
57 17 1
57 18 1
57 26 1
57 27 1
57 28 1
57 30 1
57 33 1
57 35 1
57 36 1
57 40 1
57 43 1
57 44 1
57 47 1
57 49 1
57 50 1
57 53 1
57 55 1
57 56 1
58 1 1
58 3 1
58 4 1
58 5 1
58 6 1
58 9 1
58 13 1
58 15 1
58 16 1
58 17 1
58 18 1
58 19 1
58 20 1
58 23 1
58 26 1
58 27 1
58 30 1
58 34 1
58 38 1
58 39 1
58 41 1
58 42 1
58 43 1
58 44 1
58 45 1
58 47 1
58 49 1
58 55 1
58 56 1
58 57 1
59 0 1
59 1 1
59 2 1
59 3 1
59 4 1
59 5 1
59 6 1
59 11 1
59 13 1
59 14 1
59 16 1
59 17 1
59 19 1
59 20 1
59 21 1
59 22 1
59 23 1
59 25 1
59 29 1
59 30 1
59 31 1
59 39 1
59 45 1
59 48 1
59 49 1
59 54 1
59 58 1
60 3 1
60 4 1
60 6 1
60 7 1
60 8 1
60 9 1
60 10 1
60 11 1
60 12 1
60 14 1
60 15 1
60 17 1
60 18 1
60 20 1
60 23 1
60 24 1
60 32 1
60 34 1
60 36 1
60 39 1
60 43 1
60 47 1
60 48 1
60 51 1
60 52 1
60 53 1
61 0 1
61 1 1
61 2 1
61 5 1
61 8 1
61 11 1
61 12 1
61 13 1
61 14 1
61 16 1
61 19 1
61 20 1
61 21 1
61 22 1
61 27 1
61 28 1
61 29 1
61 31 1
61 35 1
61 36 1
61 38 1
61 39 1
61 40 1
61 42 1
61 54 1
61 56 1
61 57 1
62 1 1
62 2 1
62 3 1
62 6 1
62 9 1
62 11 1
62 15 1
62 18 1
62 24 1
62 25 1
62 26 1
62 27 1
62 30 1
62 31 1
62 33 1
62 35 1
62 36 1
62 37 1
62 38 1
62 39 1
62 40 1
62 46 1
62 47 1
62 48 1
62 49 1
62 52 1
62 55 1
62 56 1
62 57 1
62 59 1
63 0 1
63 1 1
63 2 1
63 3 1
63 4 1
63 8 1
63 9 1
63 12 1
63 15 1
63 19 1
63 20 1
63 24 1
63 25 1
63 26 1
63 27 1
63 28 1
63 29 1
63 30 1
63 32 1
63 36 1
63 37 1
63 39 1
63 43 1
63 44 1
63 46 1
63 47 1
63 49 1
63 50 1
63 55 1
63 57 1
63 58 1
64 1 1
64 2 1
64 3 1
64 4 1
64 6 1
64 8 1
64 9 1
64 12 1
64 16 1
64 19 1
64 20 1
64 21 1
64 22 1
64 26 1
64 29 1
64 33 1
64 36 1
64 41 1
64 43 1
64 46 1
64 49 1
64 52 1
64 55 1
64 57 1
64 60 1
64 61 1
65 1 1
65 3 1
65 4 1
65 6 1
65 9 1
65 10 1
65 11 1
65 12 1
65 13 1
65 16 1
65 19 1
65 20 1
65 22 1
65 24 1
65 26 1
65 27 1
65 30 1
65 32 1
65 33 1
65 35 1
65 38 1
65 39 1
65 41 1
65 43 1
65 47 1
65 51 1
65 53 1
65 57 1
65 58 1
65 59 1
65 62 1
65 64 1
66 0 1
66 1 1
66 2 1
66 3 1
66 4 1
66 8 1
66 9 1
66 12 1
66 13 1
66 15 1
66 17 1
66 19 1
66 20 1
66 21 1
66 24 1
66 27 1
66 30 1
66 33 1
66 34 1
66 35 1
66 36 1
66 39 1
66 43 1
66 44 1
66 45 1
66 46 1
66 48 1
66 49 1
66 50 1
66 52 1
66 54 1
66 57 1
66 63 1
67 6 1
67 7 1
67 8 1
67 10 1
67 15 1
67 16 1
67 23 1
67 24 1
67 25 1
67 27 1
67 31 1
67 33 1
67 35 1
67 36 1
67 37 1
67 38 1
67 39 1
67 40 1
67 44 1
67 46 1
67 50 1
67 53 1
67 56 1
67 57 1
67 59 1
67 60 1
67 62 1
67 64 1
67 65 1
68 0 1
68 2 1
68 4 1
68 5 1
68 12 1
68 13 1
68 14 1
68 17 1
68 18 1
68 19 1
68 20 1
68 23 1
68 25 1
68 27 1
68 28 1
68 31 1
68 33 1
68 35 1
68 38 1
68 39 1
68 40 1
68 44 1
68 46 1
68 47 1
68 48 1
68 52 1
68 54 1
68 55 1
68 56 1
68 59 1
68 62 1
68 64 1
69 0 1
69 2 1
69 3 1
69 4 1
69 5 1
69 7 1
69 8 1
69 10 1
69 11 1
69 15 1
69 17 1
69 18 1
69 23 1
69 24 1
69 25 1
69 28 1
69 29 1
69 31 1
69 39 1
69 40 1
69 41 1
69 45 1
69 46 1
69 47 1
69 51 1
69 52 1
69 55 1
69 58 1
69 59 1
69 64 1
